x_1
x_2
x_3
x_4
x_5
x_6
x_7
x_8
x_9
x_10
x_11
x_12
x_13
x_14
x_15
x_16
x_17
x_18
x_19
x_20
x_3 x_2
x_4 x_1
x_4 x_3
x_6 x_1
x_6 x_2
x_6 x_5
x_7 x_1
x_7 x_2
x_7 x_3
x_7 x_4
x_7 x_5
x_8 x_2
x_8 x_3
x_8 x_4
x_8 x_5
x_8 x_7
x_9 x_1
x_9 x_2
x_9 x_4
x_9 x_6
x_9 x_8
x_10 x_1
x_10 x_2
x_10 x_4
x_11 x_1
x_11 x_4
x_11 x_5
x_12 x_1
x_12 x_2
x_12 x_4
x_12 x_6
x_12 x_8
x_12 x_9
x_12 x_10
x_12 x_11
x_13 x_1
x_13 x_2
x_13 x_3
x_13 x_7
x_13 x_8
x_13 x_11
x_14 x_1
x_14 x_4
x_14 x_5
x_14 x_7
x_14 x_10
x_15 x_1
x_15 x_3
x_15 x_6
x_15 x_8
x_15 x_9
x_15 x_11
x_16 x_2
x_16 x_5
x_16 x_9
x_16 x_12
x_16 x_13
x_16 x_14
x_16 x_15
x_17 x_1
x_17 x_7
x_17 x_8
x_17 x_9
x_17 x_11
x_17 x_13
x_18 x_3
x_18 x_4
x_18 x_6
x_18 x_7
x_18 x_8
x_18 x_10
x_18 x_11
x_18 x_13
x_18 x_14
x_18 x_16
x_18 x_17
x_19 x_1
x_19 x_3
x_19 x_7
x_19 x_11
x_19 x_12
x_19 x_14
x_19 x_16
x_19 x_17
x_20 x_1
x_20 x_2
x_20 x_3
x_20 x_4
x_20 x_7
x_20 x_8
x_20 x_9
x_20 x_10
x_20 x_13
x_20 x_15
x_20 x_17
